Si fcc:                                 
   1.00000000000000     
    15.2876480000000008    0.0000000000000000    0.0000000000000000
     0.0000000000000000   26.4789840000000005    0.0000000000000000
     0.0000000000000000    0.0000000000000000   40.0000000000000000
   Si   In   H 
   272    32    32
Selective dynamics
Direct
  0.1250000000000000  0.3333334999999948  0.0524819999999977   F   F   F
  0.1250000000000000  0.4166665000000052  0.0719849999999980   F   F   F
  0.1250000000000000  0.0833334999999948  0.0524819999999977   F   F   F
  0.1250000000000000  0.1666665000000052  0.0719849999999980   F   F   F
  0.0000000000000000  0.2916665000000052  0.0719849999999980   F   F   F
  0.0000000000000000  0.4583334999999948  0.0524819999999977   F   F   F
  0.0000000000000000  0.0416664999999981  0.0719849999999980   F   F   F
  0.0000000000000000  0.2083334999999948  0.0524819999999977   F   F   F
  0.1252657768221455  0.2506643230148320  0.1504060659699254   T   T   T
  0.1254258715788353  0.2510857923729178  0.2090824561489073   T   T   T
  0.1252460941893437  0.4169506361613535  0.1305035646066955   T   T   T
  0.1256118988867541  0.3343864537175168  0.2297211188798998   T   T   T
  0.1257430746140571  0.3347131521821177  0.2890771635885810   T   T   T
  0.1252390751766092  0.0008931956351475  0.1492488191749761   T   T   T
  0.1255793209853364  0.0014527717107698  0.2074688356655923   T   T   T
  0.1252703263869383  0.1671371501493848  0.1307489698976017   T   T   T
  0.1255617641787259  0.0835736400629438  0.2296138472136464   T   T   T
  0.1259812708490981  0.0835617609921219  0.2889009848880347   T   T   T
  0.0002384444905988  0.2916772179423295  0.1302468372040743   T   T   T
  0.0002667577274993  0.3747615278619277  0.1498406480250667   T   T   T
  0.0006100191902911  0.3742215193412886  0.2082996727115391   T   T   T
  0.0005708789070626  0.4584685825242527  0.2249051896144796   T   T   T
  0.0005168708629245  0.4588134763623694  0.2824658064886943   T   T   T
  0.0002204256369628  0.0424554900580169  0.1300695386898585   T   T   T
  0.0002876693524418  0.1252886147832837  0.1505288254104743   T   T   T
  0.0004984900431477  0.1250359165086105  0.2093150486718721   T   T   T
  0.0004477606628779  0.2087817540160307  0.2279348301327339   T   T   T
  0.0008520300111172  0.2092350064757841  0.2861328041273700   T   T   T
  0.0009867327600416  0.0391685152596525  0.3064240090707636   T   T   T
  0.0007653463271574  0.2919123577384772  0.3076381297881787   T   T   T
  0.0004551173263944  0.0072524866355217  0.3622500614938132   T   T   T
  0.1258783090637008  0.1682051462398136  0.3066495714793122   T   T   T
  0.1254806306541558  0.4210279663570222  0.3050042768928405   T   T   T
  0.1254719536882823  0.4551522205200470  0.3611027968042059   T   T   T
  0.1250000000000000  0.8333334999999948  0.0524819999999977   F   F   F
  0.1250000000000000  0.9166665000000052  0.0719849999999980   F   F   F
  0.1250000000000000  0.5833334999999948  0.0524819999999977   F   F   F
  0.1250000000000000  0.6666665000000052  0.0719849999999980   F   F   F
  0.0000000000000000  0.7916665000000052  0.0719849999999980   F   F   F
  0.0000000000000000  0.9583334999999948  0.0524819999999977   F   F   F
  0.0000000000000000  0.5416665000000052  0.0719849999999980   F   F   F
  0.0000000000000000  0.7083334999999948  0.0524819999999977   F   F   F
  0.1252657768221455  0.7506643230148321  0.1504060659699254   T   T   T
  0.1254258715788353  0.7510857923729178  0.2090824561489073   T   T   T
  0.1252460941893437  0.9169506361613535  0.1305035646066955   T   T   T
  0.1256118988867541  0.8343864537175169  0.2297211188798998   T   T   T
  0.1257430746140571  0.8347131521821177  0.2890771635885810   T   T   T
  0.1252390751766092  0.5008931956351474  0.1492488191749761   T   T   T
  0.1255793209853364  0.5014527717107627  0.2074688356655923   T   T   T
  0.1252703263869383  0.6671371501493847  0.1307489698976017   T   T   T
  0.1255617641787259  0.5835736400629439  0.2296138472136464   T   T   T
  0.1259812708490981  0.5835617609921219  0.2889009848880347   T   T   T
  0.0002384444905988  0.7916772179423295  0.1302468372040743   T   T   T
  0.0002667577274993  0.8747615278619277  0.1498406480250667   T   T   T
  0.0006100191902911  0.8742215193412888  0.2082996727115391   T   T   T
  0.0005708789070626  0.9584685825242527  0.2249051896144796   T   T   T
  0.0005168708629245  0.9588134763623694  0.2824658064886943   T   T   T
  0.0002204256369628  0.5424554900580169  0.1300695386898585   T   T   T
  0.0002876693524418  0.6252886147832837  0.1505288254104743   T   T   T
  0.0004984900431477  0.6250359165086105  0.2093150486718721   T   T   T
  0.0004477606628779  0.7087817540160308  0.2279348301327339   T   T   T
  0.0008520300111172  0.7092350064757842  0.2861328041273700   T   T   T
  0.0009867327600416  0.5391685152596525  0.3064240090707636   T   T   T
  0.0007653463271574  0.7919123577384771  0.3076381297881787   T   T   T
  0.0004551173263944  0.5072524866355218  0.3622500614938132   T   T   T
  0.1258783090637008  0.6682051462398135  0.3066495714793122   T   T   T
  0.1254806306541558  0.9210279663570222  0.3050042768928405   T   T   T
  0.1254719536882823  0.9551522205200471  0.3611027968042059   T   T   T
  0.3750000000000000  0.3333334999999948  0.0524819999999977   F   F   F
  0.3750000000000000  0.4166665000000052  0.0719849999999980   F   F   F
  0.3750000000000000  0.0833334999999948  0.0524819999999977   F   F   F
  0.3750000000000000  0.1666665000000052  0.0719849999999980   F   F   F
  0.2500000000000000  0.2916665000000052  0.0719849999999980   F   F   F
  0.2500000000000000  0.4583334999999948  0.0524819999999977   F   F   F
  0.2500000000000000  0.0416664999999981  0.0719849999999980   F   F   F
  0.2500000000000000  0.2083334999999948  0.0524819999999977   F   F   F
  0.3752657768221455  0.2506643230148320  0.1504060659699254   T   T   T
  0.3754258715788353  0.2510857923729178  0.2090824561489073   T   T   T
  0.3752460941893437  0.4169506361613535  0.1305035646066955   T   T   T
  0.3756118988867541  0.3343864537175168  0.2297211188798998   T   T   T
  0.3757430746140570  0.3347131521821177  0.2890771635885810   T   T   T
  0.3752390751766091  0.0008931956351475  0.1492488191749761   T   T   T
  0.3755793209853364  0.0014527717107698  0.2074688356655923   T   T   T
  0.3752703263869384  0.1671371501493848  0.1307489698976017   T   T   T
  0.3755617641787259  0.0835736400629438  0.2296138472136464   T   T   T
  0.3759812708490980  0.0835617609921219  0.2889009848880347   T   T   T
  0.2502384444905988  0.2916772179423295  0.1302468372040743   T   T   T
  0.2502667577274992  0.3747615278619277  0.1498406480250667   T   T   T
  0.2506100191902912  0.3742215193412886  0.2082996727115391   T   T   T
  0.2505708789070626  0.4584685825242527  0.2249051896144796   T   T   T
  0.2505168708629245  0.4588134763623694  0.2824658064886943   T   T   T
  0.2502204256369628  0.0424554900580169  0.1300695386898585   T   T   T
  0.2502876693524418  0.1252886147832837  0.1505288254104743   T   T   T
  0.2504984900431477  0.1250359165086105  0.2093150486718721   T   T   T
  0.2504477606628780  0.2087817540160307  0.2279348301327339   T   T   T
  0.2508520300111172  0.2092350064757841  0.2861328041273700   T   T   T
  0.2509867327600416  0.0391685152596525  0.3064240090707636   T   T   T
  0.2507653463271574  0.2919123577384772  0.3076381297881787   T   T   T
  0.2504551173263944  0.0072524866355217  0.3622500614938132   T   T   T
  0.3758783090637008  0.1682051462398136  0.3066495714793122   T   T   T
  0.3754806306541558  0.4210279663570222  0.3050042768928405   T   T   T
  0.3754719536882822  0.4551522205200470  0.3611027968042059   T   T   T
  0.3750000000000000  0.8333334999999948  0.0524819999999977   F   F   F
  0.3750000000000000  0.9166665000000052  0.0719849999999980   F   F   F
  0.3750000000000000  0.5833334999999948  0.0524819999999977   F   F   F
  0.3750000000000000  0.6666665000000052  0.0719849999999980   F   F   F
  0.2500000000000000  0.7916665000000052  0.0719849999999980   F   F   F
  0.2500000000000000  0.9583334999999948  0.0524819999999977   F   F   F
  0.2500000000000000  0.5416665000000052  0.0719849999999980   F   F   F
  0.2500000000000000  0.7083334999999948  0.0524819999999977   F   F   F
  0.3752657768221455  0.7506643230148321  0.1504060659699254   T   T   T
  0.3754258715788353  0.7510857923729178  0.2090824561489073   T   T   T
  0.3752460941893437  0.9169506361613535  0.1305035646066955   T   T   T
  0.3756118988867541  0.8343864537175169  0.2297211188798998   T   T   T
  0.3757430746140570  0.8347131521821177  0.2890771635885810   T   T   T
  0.3752390751766091  0.5008931956351474  0.1492488191749761   T   T   T
  0.3755793209853364  0.5014527717107627  0.2074688356655923   T   T   T
  0.3752703263869384  0.6671371501493847  0.1307489698976017   T   T   T
  0.3755617641787259  0.5835736400629439  0.2296138472136464   T   T   T
  0.3759812708490980  0.5835617609921219  0.2889009848880347   T   T   T
  0.2502384444905988  0.7916772179423295  0.1302468372040743   T   T   T
  0.2502667577274992  0.8747615278619277  0.1498406480250667   T   T   T
  0.2506100191902912  0.8742215193412888  0.2082996727115391   T   T   T
  0.2505708789070626  0.9584685825242527  0.2249051896144796   T   T   T
  0.2505168708629245  0.9588134763623694  0.2824658064886943   T   T   T
  0.2502204256369628  0.5424554900580169  0.1300695386898585   T   T   T
  0.2502876693524418  0.6252886147832837  0.1505288254104743   T   T   T
  0.2504984900431477  0.6250359165086105  0.2093150486718721   T   T   T
  0.2504477606628780  0.7087817540160308  0.2279348301327339   T   T   T
  0.2508520300111172  0.7092350064757842  0.2861328041273700   T   T   T
  0.2509867327600416  0.5391685152596525  0.3064240090707636   T   T   T
  0.2507653463271574  0.7919123577384771  0.3076381297881787   T   T   T
  0.2504551173263944  0.5072524866355218  0.3622500614938132   T   T   T
  0.3758783090637008  0.6682051462398135  0.3066495714793122   T   T   T
  0.3754806306541558  0.9210279663570222  0.3050042768928405   T   T   T
  0.3754719536882822  0.9551522205200471  0.3611027968042059   T   T   T
  0.6250000000000000  0.3333334999999948  0.0524819999999977   F   F   F
  0.6250000000000000  0.4166665000000052  0.0719849999999980   F   F   F
  0.6250000000000000  0.0833334999999948  0.0524819999999977   F   F   F
  0.6250000000000000  0.1666665000000052  0.0719849999999980   F   F   F
  0.5000000000000000  0.2916665000000052  0.0719849999999980   F   F   F
  0.5000000000000000  0.4583334999999948  0.0524819999999977   F   F   F
  0.5000000000000000  0.0416664999999981  0.0719849999999980   F   F   F
  0.5000000000000000  0.2083334999999948  0.0524819999999977   F   F   F
  0.6252657768221456  0.2506643230148320  0.1504060659699254   T   T   T
  0.6254258715788353  0.2510857923729178  0.2090824561489073   T   T   T
  0.6252460941893437  0.4169506361613535  0.1305035646066955   T   T   T
  0.6256118988867541  0.3343864537175168  0.2297211188798998   T   T   T
  0.6257430746140571  0.3347131521821177  0.2890771635885810   T   T   T
  0.6252390751766093  0.0008931956351475  0.1492488191749761   T   T   T
  0.6255793209853364  0.0014527717107698  0.2074688356655923   T   T   T
  0.6252703263869384  0.1671371501493848  0.1307489698976017   T   T   T
  0.6255617641787259  0.0835736400629438  0.2296138472136464   T   T   T
  0.6259812708490979  0.0835617609921219  0.2889009848880347   T   T   T
  0.5002384444905987  0.2916772179423295  0.1302468372040743   T   T   T
  0.5002667577274993  0.3747615278619277  0.1498406480250667   T   T   T
  0.5006100191902911  0.3742215193412886  0.2082996727115391   T   T   T
  0.5005708789070625  0.4584685825242527  0.2249051896144796   T   T   T
  0.5005168708629244  0.4588134763623694  0.2824658064886943   T   T   T
  0.5002204256369628  0.0424554900580169  0.1300695386898585   T   T   T
  0.5002876693524420  0.1252886147832837  0.1505288254104743   T   T   T
  0.5004984900431477  0.1250359165086105  0.2093150486718721   T   T   T
  0.5004477606628779  0.2087817540160307  0.2279348301327339   T   T   T
  0.5008520300111172  0.2092350064757841  0.2861328041273700   T   T   T
  0.5009867327600416  0.0391685152596525  0.3064240090707636   T   T   T
  0.5007653463271573  0.2919123577384772  0.3076381297881787   T   T   T
  0.5004551173263944  0.0072524866355217  0.3622500614938132   T   T   T
  0.6258783090637008  0.1682051462398136  0.3066495714793122   T   T   T
  0.6254806306541558  0.4210279663570222  0.3050042768928405   T   T   T
  0.6254719536882822  0.4551522205200470  0.3611027968042059   T   T   T
  0.6250000000000000  0.8333334999999948  0.0524819999999977   F   F   F
  0.6250000000000000  0.9166665000000052  0.0719849999999980   F   F   F
  0.6250000000000000  0.5833334999999948  0.0524819999999977   F   F   F
  0.6250000000000000  0.6666665000000052  0.0719849999999980   F   F   F
  0.5000000000000000  0.7916665000000052  0.0719849999999980   F   F   F
  0.5000000000000000  0.9583334999999948  0.0524819999999977   F   F   F
  0.5000000000000000  0.5416665000000052  0.0719849999999980   F   F   F
  0.5000000000000000  0.7083334999999948  0.0524819999999977   F   F   F
  0.6252657768221456  0.7506643230148321  0.1504060659699254   T   T   T
  0.6254258715788353  0.7510857923729178  0.2090824561489073   T   T   T
  0.6252460941893437  0.9169506361613535  0.1305035646066955   T   T   T
  0.6256118988867541  0.8343864537175169  0.2297211188798998   T   T   T
  0.6257430746140571  0.8347131521821177  0.2890771635885810   T   T   T
  0.6252390751766093  0.5008931956351474  0.1492488191749761   T   T   T
  0.6255793209853364  0.5014527717107627  0.2074688356655923   T   T   T
  0.6252703263869384  0.6671371501493847  0.1307489698976017   T   T   T
  0.6255617641787259  0.5835736400629439  0.2296138472136464   T   T   T
  0.6259812708490979  0.5835617609921219  0.2889009848880347   T   T   T
  0.5002384444905987  0.7916772179423295  0.1302468372040743   T   T   T
  0.5002667577274993  0.8747615278619277  0.1498406480250667   T   T   T
  0.5006100191902911  0.8742215193412888  0.2082996727115391   T   T   T
  0.5005708789070625  0.9584685825242527  0.2249051896144796   T   T   T
  0.5005168708629244  0.9588134763623694  0.2824658064886943   T   T   T
  0.5002204256369628  0.5424554900580169  0.1300695386898585   T   T   T
  0.5002876693524420  0.6252886147832837  0.1505288254104743   T   T   T
  0.5004984900431477  0.6250359165086105  0.2093150486718721   T   T   T
  0.5004477606628779  0.7087817540160308  0.2279348301327339   T   T   T
  0.5008520300111172  0.7092350064757842  0.2861328041273700   T   T   T
  0.5009867327600416  0.5391685152596525  0.3064240090707636   T   T   T
  0.5007653463271573  0.7919123577384771  0.3076381297881787   T   T   T
  0.5004551173263944  0.5072524866355218  0.3622500614938132   T   T   T
  0.6258783090637008  0.6682051462398135  0.3066495714793122   T   T   T
  0.6254806306541558  0.9210279663570222  0.3050042768928405   T   T   T
  0.6254719536882822  0.9551522205200471  0.3611027968042059   T   T   T
  0.8750000000000000  0.3333334999999948  0.0524819999999977   F   F   F
  0.8750000000000000  0.4166665000000052  0.0719849999999980   F   F   F
  0.8750000000000000  0.0833334999999948  0.0524819999999977   F   F   F
  0.8750000000000000  0.1666665000000052  0.0719849999999980   F   F   F
  0.7500000000000000  0.2916665000000052  0.0719849999999980   F   F   F
  0.7500000000000000  0.4583334999999948  0.0524819999999977   F   F   F
  0.7500000000000000  0.0416664999999981  0.0719849999999980   F   F   F
  0.7500000000000000  0.2083334999999948  0.0524819999999977   F   F   F
  0.8752657768221456  0.2506643230148320  0.1504060659699254   T   T   T
  0.8754258715788353  0.2510857923729178  0.2090824561489073   T   T   T
  0.8752460941893437  0.4169506361613535  0.1305035646066955   T   T   T
  0.8756118988867541  0.3343864537175168  0.2297211188798998   T   T   T
  0.8757430746140571  0.3347131521821177  0.2890771635885810   T   T   T
  0.8752390751766093  0.0008931956351475  0.1492488191749761   T   T   T
  0.8755793209853364  0.0014527717107698  0.2074688356655923   T   T   T
  0.8752703263869384  0.1671371501493848  0.1307489698976017   T   T   T
  0.8755617641787188  0.0835736400629438  0.2296138472136464   T   T   T
  0.8759812708490979  0.0835617609921219  0.2889009848880347   T   T   T
  0.7502384444905987  0.2916772179423295  0.1302468372040743   T   T   T
  0.7502667577274993  0.3747615278619277  0.1498406480250667   T   T   T
  0.7506100191902911  0.3742215193412886  0.2082996727115391   T   T   T
  0.7505708789070625  0.4584685825242527  0.2249051896144796   T   T   T
  0.7505168708629244  0.4588134763623694  0.2824658064886943   T   T   T
  0.7502204256369628  0.0424554900580169  0.1300695386898585   T   T   T
  0.7502876693524420  0.1252886147832837  0.1505288254104743   T   T   T
  0.7504984900431477  0.1250359165086105  0.2093150486718721   T   T   T
  0.7504477606628779  0.2087817540160307  0.2279348301327339   T   T   T
  0.7508520300111172  0.2092350064757841  0.2861328041273700   T   T   T
  0.7509867327600416  0.0391685152596525  0.3064240090707636   T   T   T
  0.7507653463271573  0.2919123577384772  0.3076381297881787   T   T   T
  0.7504551173263944  0.0072524866355217  0.3622500614938132   T   T   T
  0.8758783090637008  0.1682051462398136  0.3066495714793122   T   T   T
  0.8754806306541558  0.4210279663570222  0.3050042768928405   T   T   T
  0.8754719536882822  0.4551522205200470  0.3611027968042059   T   T   T
  0.8750000000000000  0.8333334999999948  0.0524819999999977   F   F   F
  0.8750000000000000  0.9166665000000052  0.0719849999999980   F   F   F
  0.8750000000000000  0.5833334999999948  0.0524819999999977   F   F   F
  0.8750000000000000  0.6666665000000052  0.0719849999999980   F   F   F
  0.7500000000000000  0.7916665000000052  0.0719849999999980   F   F   F
  0.7500000000000000  0.9583334999999948  0.0524819999999977   F   F   F
  0.7500000000000000  0.5416665000000052  0.0719849999999980   F   F   F
  0.7500000000000000  0.7083334999999948  0.0524819999999977   F   F   F
  0.8752657768221456  0.7506643230148321  0.1504060659699254   T   T   T
  0.8754258715788353  0.7510857923729178  0.2090824561489073   T   T   T
  0.8752460941893437  0.9169506361613535  0.1305035646066955   T   T   T
  0.8756118988867541  0.8343864537175169  0.2297211188798998   T   T   T
  0.8757430746140571  0.8347131521821177  0.2890771635885810   T   T   T
  0.8752390751766093  0.5008931956351474  0.1492488191749761   T   T   T
  0.8755793209853364  0.5014527717107627  0.2074688356655923   T   T   T
  0.8752703263869384  0.6671371501493847  0.1307489698976017   T   T   T
  0.8755617641787188  0.5835736400629439  0.2296138472136464   T   T   T
  0.8759812708490979  0.5835617609921219  0.2889009848880347   T   T   T
  0.7502384444905987  0.7916772179423295  0.1302468372040743   T   T   T
  0.7502667577274993  0.8747615278619277  0.1498406480250667   T   T   T
  0.7506100191902911  0.8742215193412888  0.2082996727115391   T   T   T
  0.7505708789070625  0.9584685825242527  0.2249051896144796   T   T   T
  0.7505168708629244  0.9588134763623694  0.2824658064886943   T   T   T
  0.7502204256369628  0.5424554900580169  0.1300695386898585   T   T   T
  0.7502876693524420  0.6252886147832837  0.1505288254104743   T   T   T
  0.7504984900431477  0.6250359165086105  0.2093150486718721   T   T   T
  0.7504477606628779  0.7087817540160308  0.2279348301327339   T   T   T
  0.7508520300111172  0.7092350064757842  0.2861328041273700   T   T   T
  0.7509867327600416  0.5391685152596525  0.3064240090707636   T   T   T
  0.7507653463271573  0.7919123577384771  0.3076381297881787   T   T   T
  0.7504551173263944  0.5072524866355218  0.3622500614938132   T   T   T
  0.8758783090637008  0.6682051462398135  0.3066495714793122   T   T   T
  0.8754806306541558  0.9210279663570222  0.3050042768928405   T   T   T
  0.8754719536882822  0.9551522205200471  0.3611027968042059   T   T   T
  0.0012525301921199  0.1027247959082362  0.3815484171283305   T   T   T
  0.0011532238728686  0.2758541275849934  0.3734372222234624   T   T   T
  0.1262456165256001  0.1869315718219713  0.3722756936727313   T   T   T
  0.1261805651235416  0.3604648666070061  0.3813287402439767   T   T   T
  0.0012525301921199  0.6027247959082362  0.3815484171283305   T   T   T
  0.0011532238728686  0.7758541275849935  0.3734372222234624   T   T   T
  0.1262456165256001  0.6869315718219713  0.3722756936727313   T   T   T
  0.1261805651235416  0.8604648666070059  0.3813287402439767   T   T   T
  0.2512525301921199  0.1027247959082362  0.3815484171283305   T   T   T
  0.2511532238728686  0.2758541275849934  0.3734372222234624   T   T   T
  0.3762456165256001  0.1869315718219713  0.3722756936727313   T   T   T
  0.3761805651235416  0.3604648666070061  0.3813287402439767   T   T   T
  0.2512525301921199  0.6027247959082362  0.3815484171283305   T   T   T
  0.2511532238728686  0.7758541275849935  0.3734372222234624   T   T   T
  0.3762456165256001  0.6869315718219713  0.3722756936727313   T   T   T
  0.3761805651235416  0.8604648666070059  0.3813287402439767   T   T   T
  0.5012525301921199  0.1027247959082362  0.3815484171283305   T   T   T
  0.5011532238728685  0.2758541275849934  0.3734372222234624   T   T   T
  0.6262456165256001  0.1869315718219713  0.3722756936727313   T   T   T
  0.6261805651235416  0.3604648666070061  0.3813287402439767   T   T   T
  0.5012525301921199  0.6027247959082362  0.3815484171283305   T   T   T
  0.5011532238728685  0.7758541275849935  0.3734372222234624   T   T   T
  0.6262456165256001  0.6869315718219713  0.3722756936727313   T   T   T
  0.6261805651235416  0.8604648666070059  0.3813287402439767   T   T   T
  0.7512525301921199  0.1027247959082362  0.3815484171283305   T   T   T
  0.7511532238728685  0.2758541275849934  0.3734372222234624   T   T   T
  0.8762456165256001  0.1869315718219713  0.3722756936727313   T   T   T
  0.8761805651235416  0.3604648666070061  0.3813287402439767   T   T   T
  0.7512525301921199  0.6027247959082362  0.3815484171283305   T   T   T
  0.7511532238728685  0.7758541275849935  0.3734372222234624   T   T   T
  0.8762456165256001  0.6869315718219713  0.3722756936727313   T   T   T
  0.8761805651235416  0.8604648666070059  0.3813287402439767   T   T   T
  0.1250287986590450  0.3334430297459861  0.0146896047005356   F   F   F
  0.1250541677751613  0.0839017263267223  0.0146881485176777   F   F   F
  0.0000470639842689  0.4584589721156149  0.0146892599818713   F   F   F
  0.0000586529363034  0.2080082838051425  0.0146867974979301   F   F   F
  0.1250287986590450  0.8334430297459861  0.0146896047005356   F   F   F
  0.1250541677751613  0.5839017263267223  0.0146881485176777   F   F   F
  0.0000470639842689  0.9584589721156149  0.0146892599818713   F   F   F
  0.0000586529363034  0.7080082838051425  0.0146867974979301   F   F   F
  0.3750287986590450  0.3334430297459861  0.0146896047005356   F   F   F
  0.3750541677751613  0.0839017263267223  0.0146881485176777   F   F   F
  0.2500470639842689  0.4584589721156149  0.0146892599818713   F   F   F
  0.2500586529363034  0.2080082838051425  0.0146867974979301   F   F   F
  0.3750287986590450  0.8334430297459861  0.0146896047005356   F   F   F
  0.3750541677751613  0.5839017263267223  0.0146881485176777   F   F   F
  0.2500470639842689  0.9584589721156149  0.0146892599818713   F   F   F
  0.2500586529363034  0.7080082838051425  0.0146867974979301   F   F   F
  0.6250287986590450  0.3334430297459861  0.0146896047005356   F   F   F
  0.6250541677751613  0.0839017263267223  0.0146881485176777   F   F   F
  0.5000470639842689  0.4584589721156149  0.0146892599818713   F   F   F
  0.5000586529363034  0.2080082838051425  0.0146867974979301   F   F   F
  0.6250287986590450  0.8334430297459861  0.0146896047005356   F   F   F
  0.6250541677751613  0.5839017263267223  0.0146881485176777   F   F   F
  0.5000470639842689  0.9584589721156149  0.0146892599818713   F   F   F
  0.5000586529363034  0.7080082838051425  0.0146867974979301   F   F   F
  0.8750287986590450  0.3334430297459861  0.0146896047005356   F   F   F
  0.8750541677751613  0.0839017263267223  0.0146881485176777   F   F   F
  0.7500470639842689  0.4584589721156149  0.0146892599818713   F   F   F
  0.7500586529363034  0.2080082838051425  0.0146867974979301   F   F   F
  0.8750287986590450  0.8334430297459861  0.0146896047005356   F   F   F
  0.8750541677751613  0.5839017263267223  0.0146881485176777   F   F   F
  0.7500470639842689  0.9584589721156149  0.0146892599818713   F   F   F
  0.7500586529363034  0.7080082838051425  0.0146867974979301   F   F   F
 
  0.00000000E+00  0.00000000E+00  0.00000000E+00
  0.00000000E+00  0.00000000E+00  0.00000000E+00
  0.00000000E+00  0.00000000E+00  0.00000000E+00
  0.00000000E+00  0.00000000E+00  0.00000000E+00
  0.00000000E+00  0.00000000E+00  0.00000000E+00
  0.00000000E+00  0.00000000E+00  0.00000000E+00
  0.00000000E+00  0.00000000E+00  0.00000000E+00
  0.00000000E+00  0.00000000E+00  0.00000000E+00
  0.00000000E+00  0.00000000E+00  0.00000000E+00
  0.00000000E+00  0.00000000E+00  0.00000000E+00
  0.00000000E+00  0.00000000E+00  0.00000000E+00
  0.00000000E+00  0.00000000E+00  0.00000000E+00
  0.00000000E+00  0.00000000E+00  0.00000000E+00
  0.00000000E+00  0.00000000E+00  0.00000000E+00
  0.00000000E+00  0.00000000E+00  0.00000000E+00
  0.00000000E+00  0.00000000E+00  0.00000000E+00
  0.00000000E+00  0.00000000E+00  0.00000000E+00
  0.00000000E+00  0.00000000E+00  0.00000000E+00
  0.00000000E+00  0.00000000E+00  0.00000000E+00
  0.00000000E+00  0.00000000E+00  0.00000000E+00
  0.00000000E+00  0.00000000E+00  0.00000000E+00
  0.00000000E+00  0.00000000E+00  0.00000000E+00
  0.00000000E+00  0.00000000E+00  0.00000000E+00
  0.00000000E+00  0.00000000E+00  0.00000000E+00
  0.00000000E+00  0.00000000E+00  0.00000000E+00
  0.00000000E+00  0.00000000E+00  0.00000000E+00
  0.00000000E+00  0.00000000E+00  0.00000000E+00
  0.00000000E+00  0.00000000E+00  0.00000000E+00
  0.00000000E+00  0.00000000E+00  0.00000000E+00
  0.00000000E+00  0.00000000E+00  0.00000000E+00
  0.00000000E+00  0.00000000E+00  0.00000000E+00
  0.00000000E+00  0.00000000E+00  0.00000000E+00
  0.00000000E+00  0.00000000E+00  0.00000000E+00
  0.00000000E+00  0.00000000E+00  0.00000000E+00
  0.00000000E+00  0.00000000E+00  0.00000000E+00
  0.00000000E+00  0.00000000E+00  0.00000000E+00
  0.00000000E+00  0.00000000E+00  0.00000000E+00
  0.00000000E+00  0.00000000E+00  0.00000000E+00
  0.00000000E+00  0.00000000E+00  0.00000000E+00
  0.00000000E+00  0.00000000E+00  0.00000000E+00
  0.00000000E+00  0.00000000E+00  0.00000000E+00
  0.00000000E+00  0.00000000E+00  0.00000000E+00
  0.00000000E+00  0.00000000E+00  0.00000000E+00
  0.00000000E+00  0.00000000E+00  0.00000000E+00
  0.00000000E+00  0.00000000E+00  0.00000000E+00
  0.00000000E+00  0.00000000E+00  0.00000000E+00
  0.00000000E+00  0.00000000E+00  0.00000000E+00
  0.00000000E+00  0.00000000E+00  0.00000000E+00
  0.00000000E+00  0.00000000E+00  0.00000000E+00
  0.00000000E+00  0.00000000E+00  0.00000000E+00
  0.00000000E+00  0.00000000E+00  0.00000000E+00
  0.00000000E+00  0.00000000E+00  0.00000000E+00
  0.00000000E+00  0.00000000E+00  0.00000000E+00
  0.00000000E+00  0.00000000E+00  0.00000000E+00
  0.00000000E+00  0.00000000E+00  0.00000000E+00
  0.00000000E+00  0.00000000E+00  0.00000000E+00
  0.00000000E+00  0.00000000E+00  0.00000000E+00
  0.00000000E+00  0.00000000E+00  0.00000000E+00
  0.00000000E+00  0.00000000E+00  0.00000000E+00
  0.00000000E+00  0.00000000E+00  0.00000000E+00
  0.00000000E+00  0.00000000E+00  0.00000000E+00
  0.00000000E+00  0.00000000E+00  0.00000000E+00
  0.00000000E+00  0.00000000E+00  0.00000000E+00
  0.00000000E+00  0.00000000E+00  0.00000000E+00
  0.00000000E+00  0.00000000E+00  0.00000000E+00
  0.00000000E+00  0.00000000E+00  0.00000000E+00
  0.00000000E+00  0.00000000E+00  0.00000000E+00
  0.00000000E+00  0.00000000E+00  0.00000000E+00
  0.00000000E+00  0.00000000E+00  0.00000000E+00
  0.00000000E+00  0.00000000E+00  0.00000000E+00
  0.00000000E+00  0.00000000E+00  0.00000000E+00
  0.00000000E+00  0.00000000E+00  0.00000000E+00
  0.00000000E+00  0.00000000E+00  0.00000000E+00
  0.00000000E+00  0.00000000E+00  0.00000000E+00
  0.00000000E+00  0.00000000E+00  0.00000000E+00
  0.00000000E+00  0.00000000E+00  0.00000000E+00
  0.00000000E+00  0.00000000E+00  0.00000000E+00
  0.00000000E+00  0.00000000E+00  0.00000000E+00
  0.00000000E+00  0.00000000E+00  0.00000000E+00
  0.00000000E+00  0.00000000E+00  0.00000000E+00
  0.00000000E+00  0.00000000E+00  0.00000000E+00
  0.00000000E+00  0.00000000E+00  0.00000000E+00
  0.00000000E+00  0.00000000E+00  0.00000000E+00
  0.00000000E+00  0.00000000E+00  0.00000000E+00
  0.00000000E+00  0.00000000E+00  0.00000000E+00
  0.00000000E+00  0.00000000E+00  0.00000000E+00
  0.00000000E+00  0.00000000E+00  0.00000000E+00
  0.00000000E+00  0.00000000E+00  0.00000000E+00
  0.00000000E+00  0.00000000E+00  0.00000000E+00
  0.00000000E+00  0.00000000E+00  0.00000000E+00
  0.00000000E+00  0.00000000E+00  0.00000000E+00
  0.00000000E+00  0.00000000E+00  0.00000000E+00
  0.00000000E+00  0.00000000E+00  0.00000000E+00
  0.00000000E+00  0.00000000E+00  0.00000000E+00
  0.00000000E+00  0.00000000E+00  0.00000000E+00
  0.00000000E+00  0.00000000E+00  0.00000000E+00
  0.00000000E+00  0.00000000E+00  0.00000000E+00
  0.00000000E+00  0.00000000E+00  0.00000000E+00
  0.00000000E+00  0.00000000E+00  0.00000000E+00
  0.00000000E+00  0.00000000E+00  0.00000000E+00
  0.00000000E+00  0.00000000E+00  0.00000000E+00
  0.00000000E+00  0.00000000E+00  0.00000000E+00
  0.00000000E+00  0.00000000E+00  0.00000000E+00
  0.00000000E+00  0.00000000E+00  0.00000000E+00